c Output_time 26.03.2020 18:15:19_+0100 1585242919770225651
c ** Program information **
c program_name                          "QBRG_debug"
c version                               "0.3.20"
c date                                  "25.3.2020"
c gid_id                                "673970833836058123f633335630c185360d632e"
c author                                "Oliver Kullmann"
c url                                   "https://github.com/OKullmann/oklibrary/blob/master/Satisfiability/Transformers/Generators/Random/QBRG.cpp"
c ** Machine information **
c machine_name                          "chyna-Lenovo-G50-70"
c bogomips                              3791.08
c ** Compilation information **
c compiler_version                      "g++ 7.5.0"
c compilation_date                      "Mar_26_2020 11:16:30"
c compilation_options                   "--std=c++17 -pedantic -fmax-errors=5 -Wall -Wextra -g -D_GLIBCXX_DEBUG"
c NDEBUG                                0
c OPTIMIZE                              0
c ** Parameters **
c command-line                          "./QBRG_debug" "a40 e40 a40 40" "420*1,1|2-2,1|3-3,1|4-4,1" "" "1,t" ""
c output                                "QuBlRaGe_160_420_1585242919770058992.qdimacs"
c options                               "filtered,renamed"
c num_quantifier_blocks                 4
c  quantifier_blocks                    1:a1-40 2:e41-80 3:a81-120 4:e121-160
c num_clause-blocks                     1
c  clause-blocks                        420 * {1-40,1,1/2} | {41-80,1,1/2} | {81-120,1,1/2} | {121-160,1,1/2}
c num_e-seeds                           37+2=39
c  e-seeds                              1 0 1 0 5 160 2 40 0 40 1 40 0 40 1 420 4 1 1 1 1 2 2 2 1 1 2 3 3 1 1 2 4 4 1 1 2 1 1585242919770058200
p cnf 160 420
a 1 2 3 4 5 6 7 8 9 10 11 12 13 14 15 16 17 18 19 20 21 22 23 24 25 26 27 28 29 30 31 32 33 34 35 36 37 38 39 40 0
e 41 42 43 44 45 46 47 48 49 50 51 52 53 54 55 56 57 58 59 60 61 62 63 64 65 66 67 68 69 70 71 72 73 74 75 76 77 78 79 80 0
a 81 82 83 84 85 86 87 88 89 90 91 92 93 94 95 96 97 98 99 100 101 102 103 104 105 106 107 108 109 110 111 112 113 114 115 116 117 118 119 120 0
e 121 122 123 124 125 126 127 128 129 130 131 132 133 134 135 136 137 138 139 140 141 142 143 144 145 146 147 148 149 150 151 152 153 154 155 156 157 158 159 160 0
-9 67 -95 -121 0
32 -56 102 -121 0
31 -69 103 -121 0
-27 73 -105 -121 0
35 -77 -105 -121 0
-5 -67 -117 -121 0
8 71 82 121 0
28 71 86 121 0
-33 -67 -87 121 0
5 60 -89 121 0
18 76 90 121 0
-3 60 93 121 0
15 70 93 121 0
-40 -69 -94 121 0
14 -50 94 121 0
36 79 102 121 0
-8 45 109 121 0
10 72 -117 121 0
33 70 116 -122 0
15 -66 -117 -122 0
-28 -76 98 122 0
40 80 -112 122 0
-29 61 -119 122 0
-34 50 120 122 0
-5 -67 -90 -123 0
15 -65 115 -123 0
35 78 -81 123 0
30 41 83 123 0
40 -49 97 123 0
13 65 99 123 0
12 42 100 123 0
33 61 101 123 0
19 60 -102 123 0
20 -65 109 123 0
-18 50 111 123 0
-24 -49 96 -124 0
-4 -80 104 -124 0
1 -69 -114 -124 0
-12 -64 92 124 0
37 -78 -100 124 0
3 -64 -103 124 0
19 -69 -117 124 0
4 74 118 124 0
27 -49 -119 -125 0
-29 70 120 -125 0
-14 79 83 125 0
3 -73 -89 125 0
-38 -61 -115 125 0
29 67 116 125 0
-38 44 117 125 0
36 -59 -90 -126 0
-8 -50 -91 -126 0
-17 76 -100 -126 0
-24 76 -105 -126 0
34 -77 -111 -126 0
-28 55 -116 -126 0
-13 -63 88 126 0
-14 54 -115 126 0
-33 -72 82 -127 0
14 44 -88 -127 0
5 -46 89 -127 0
39 74 -102 -127 0
8 -53 81 127 0
-12 76 81 127 0
21 60 82 127 0
-10 68 -97 127 0
9 -56 99 127 0
-29 -56 -105 127 0
-25 -57 -115 127 0
-5 -52 119 127 0
13 -48 88 -128 0
-15 45 94 -128 0
3 44 -100 -128 0
40 -58 -109 -128 0
19 66 -86 128 0
22 42 -88 128 0
-7 -58 -105 128 0
-37 -73 -110 -129 0
-31 -54 120 -129 0
6 -48 85 129 0
27 65 -92 129 0
-33 71 -101 129 0
17 74 -108 129 0
-6 44 -116 129 0
8 70 90 -130 0
37 -59 115 -130 0
17 41 -82 130 0
-34 -49 94 130 0
-23 -47 96 130 0
-38 69 98 130 0
-40 -58 101 130 0
-32 -67 111 130 0
39 -66 -116 130 0
27 47 -119 130 0
-40 72 81 -131 0
-21 -74 91 -131 0
-37 -78 95 -131 0
32 -51 -101 -131 0
12 55 -104 -131 0
-31 -77 -109 -131 0
12 -63 -110 -131 0
38 42 -114 -131 0
-38 64 -109 131 0
-37 46 114 131 0
-37 79 119 131 0
-16 79 83 -132 0
19 59 -89 -132 0
11 70 93 -132 0
-17 49 -100 -132 0
-35 75 -104 -132 0
29 -42 -106 -132 0
14 72 -110 -132 0
-9 -50 -82 132 0
34 64 107 132 0
19 59 -88 -133 0
35 -67 -114 -133 0
19 -73 -88 133 0
-19 78 107 133 0
-36 -52 -108 133 0
-39 -53 113 133 0
-8 46 84 -134 0
35 56 88 -134 0
-1 -56 -93 -134 0
1 -69 -106 -134 0
25 60 82 134 0
-10 76 84 134 0
11 47 -85 134 0
-33 -64 87 134 0
-39 76 -93 134 0
-26 77 113 134 0
-31 -43 96 -135 0
-26 69 -98 -135 0
-7 -78 101 -135 0
-5 -52 112 -135 0
-6 -63 116 -135 0
27 76 -118 -135 0
-23 -54 92 135 0
12 69 98 135 0
36 -62 -113 135 0
-1 -59 -95 -136 0
-13 48 -81 136 0
30 66 89 136 0
29 54 96 136 0
27 78 105 136 0
21 67 82 -137 0
4 78 96 -137 0
11 -70 -103 -137 0
32 48 -106 -137 0
35 -62 -113 -137 0
18 51 113 -137 0
36 52 113 -137 0
-13 47 82 137 0
8 -46 91 137 0
21 64 92 137 0
23 -59 104 137 0
-9 55 -105 137 0
12 -47 -89 -138 0
-37 52 92 -138 0
38 -68 -101 -138 0
22 70 -118 -138 0
5 -62 -120 -138 0
28 -78 93 138 0
-33 61 97 138 0
-4 72 -99 138 0
11 46 -103 138 0
31 -63 109 138 0
-40 77 -118 138 0
-13 -70 118 138 0
19 47 86 -139 0
23 -44 87 -139 0
24 62 -91 -139 0
32 -42 100 -139 0
24 -62 -106 -139 0
-14 -74 106 -139 0
20 -79 113 -139 0
20 -47 -84 139 0
4 -56 -89 139 0
-10 61 89 139 0
40 -48 91 139 0
-24 -42 -100 139 0
-33 -59 101 139 0
9 51 -103 139 0
32 -45 105 139 0
-14 66 -106 139 0
27 48 -107 139 0
-11 -55 99 -140 0
-40 58 -110 -140 0
33 -75 92 140 0
-1 54 -98 140 0
21 65 108 140 0
8 72 120 140 0
20 -55 81 -141 0
32 68 83 -141 0
37 54 89 -141 0
28 -57 96 -141 0
-19 -62 97 -141 0
-20 -41 -98 -141 0
-6 -75 103 -141 0
9 -55 -104 -141 0
-4 60 106 -141 0
-6 -50 109 -141 0
-25 -45 112 -141 0
-23 -49 -84 141 0
7 70 -85 141 0
-21 -47 -95 141 0
-1 -46 105 141 0
28 -61 -110 141 0
-9 -53 116 141 0
34 49 -82 -142 0
10 79 -104 -142 0
-26 51 109 -142 0
-31 63 119 -142 0
-21 -67 -81 142 0
-10 -69 -81 142 0
-4 -50 89 142 0
17 54 -116 142 0
-20 66 -84 -143 0
-23 54 -85 -143 0
4 -69 92 -143 0
-1 -79 92 -143 0
-31 63 -93 -143 0
-36 -66 107 -143 0
-27 -68 81 143 0
35 -46 -83 143 0
16 -41 -85 143 0
35 75 90 143 0
27 72 -91 143 0
-21 -79 -98 143 0
26 66 -100 143 0
3 61 100 143 0
-17 75 -105 143 0
-33 68 107 143 0
16 56 -109 143 0
8 42 -81 -144 0
35 78 -91 -144 0
29 -64 -112 -144 0
14 55 95 144 0
37 -79 96 144 0
11 -77 -110 144 0
13 66 118 144 0
-22 48 -84 -145 0
27 61 86 -145 0
-40 -47 92 -145 0
-3 -58 -95 -145 0
-3 73 -96 -145 0
35 -43 -107 -145 0
8 -54 96 145 0
16 -62 -98 145 0
-38 -48 82 -146 0
-39 43 -83 -146 0
-20 65 -93 -146 0
20 54 98 -146 0
-19 -80 114 -146 0
35 -49 81 146 0
21 -50 90 146 0
-22 -47 111 -147 0
28 -60 -112 -147 0
8 -47 84 147 0
-18 70 85 147 0
-1 51 87 147 0
13 61 -96 147 0
39 -77 114 147 0
22 -71 82 -148 0
38 42 -87 -148 0
-18 64 91 -148 0
11 -53 -96 -148 0
-13 63 116 -148 0
20 -43 -118 -148 0
-7 62 81 148 0
-14 69 86 148 0
37 59 -87 148 0
-3 -76 -90 148 0
-40 77 -96 148 0
-16 -42 -98 148 0
8 78 110 148 0
30 54 -114 148 0
22 -75 87 -149 0
-33 -47 89 -149 0
-16 -72 -90 -149 0
11 48 96 -149 0
15 56 -101 -149 0
18 -73 102 -149 0
-2 -66 108 -149 0
-36 -59 113 -149 0
-23 71 -120 -149 0
-33 49 -86 149 0
-11 -56 89 149 0
26 59 -90 149 0
-10 42 91 149 0
11 -63 -96 149 0
-24 -45 -98 149 0
-11 -77 -101 149 0
18 -57 106 149 0
-28 -43 -107 149 0
-20 -47 114 149 0
-7 64 84 -150 0
28 -79 92 -150 0
-15 67 -108 -150 0
-12 -45 110 -150 0
-23 54 -111 -150 0
11 -69 -112 -150 0
-29 64 -113 -150 0
22 64 116 -150 0
9 51 81 150 0
-18 -51 85 150 0
2 -77 -91 150 0
-16 74 99 150 0
16 -55 -101 150 0
-27 -75 102 150 0
-10 46 106 150 0
14 49 -115 150 0
12 74 -83 -151 0
-28 -41 -89 -151 0
-35 -44 -90 -151 0
-31 -51 -97 -151 0
28 -66 98 -151 0
-23 47 -120 -151 0
14 64 -82 151 0
34 54 -85 151 0
-40 42 87 151 0
15 66 -96 151 0
25 -45 106 151 0
-40 56 115 151 0
17 61 -82 -152 0
-26 62 98 -152 0
18 -77 -115 -152 0
-27 -46 -118 -152 0
-6 -60 -95 152 0
17 -75 -96 152 0
-18 -61 98 152 0
32 41 -109 152 0
-5 -53 110 152 0
38 57 115 152 0
-15 -55 94 -153 0
-40 78 94 -153 0
22 74 -97 -153 0
-9 50 106 -153 0
14 48 116 -153 0
27 71 118 -153 0
6 52 119 -153 0
-32 -54 84 153 0
31 -56 -92 153 0
-11 -50 -96 153 0
31 78 104 153 0
-39 78 -107 153 0
-3 59 110 153 0
-1 -78 110 153 0
-9 56 111 153 0
-22 41 -115 153 0
-32 -67 82 -154 0
-40 49 -85 -154 0
8 -41 89 -154 0
-28 65 105 -154 0
2 -50 -109 -154 0
35 55 111 -154 0
-37 -58 87 154 0
-15 -44 -101 154 0
29 -50 101 154 0
16 72 101 154 0
37 -74 115 154 0
11 -59 -119 154 0
-38 -42 97 -155 0
-13 -56 97 -155 0
-5 -46 120 -155 0
-25 -64 91 155 0
-12 60 97 155 0
11 71 -104 155 0
-33 -52 -111 155 0
-24 -59 88 -156 0
20 44 111 -156 0
28 80 110 156 0
19 -50 112 156 0
-23 66 -82 -157 0
3 -66 84 -157 0
30 69 -90 -157 0
-27 80 -97 -157 0
20 -68 101 -157 0
18 49 105 -157 0
-30 -80 118 -157 0
39 53 -85 157 0
-13 43 -91 157 0
11 -64 -93 157 0
-4 -49 97 157 0
36 -69 -103 157 0
-36 -78 -111 157 0
-37 -74 -116 157 0
-31 45 88 -158 0
5 -80 -92 -158 0
2 -51 97 -158 0
-13 -65 -100 -158 0
13 52 -106 -158 0
14 77 -108 -158 0
-3 62 117 -158 0
-19 50 118 -158 0
-34 -42 89 158 0
-27 64 91 158 0
-9 67 -92 158 0
-7 60 97 158 0
-24 -78 -107 158 0
-18 57 110 158 0
32 -46 -111 158 0
-25 -66 -114 158 0
18 -80 -119 158 0
13 -63 -86 -159 0
-38 -49 -104 -159 0
31 -59 108 -159 0
7 78 83 159 0
26 -72 -100 159 0
-9 67 -104 159 0
4 -65 107 159 0
23 -58 -110 159 0
23 -71 -119 159 0
-20 77 119 159 0
36 -76 -85 -160 0
-5 69 97 -160 0
-5 52 101 -160 0
-24 72 105 -160 0
33 62 -88 160 0
5 47 -96 160 0
-5 -77 108 160 0
